14 47 16 15 11 12 78 73 79 53 90 
64 23 21 18 19 49 22 20 56 91 80 
5 45 2 100 70 
71 67 94 96 54 93 
95 63 85 76 51 84 57 86 74 66 
82 52 99 87 9 10 13 17 60 
69 98 88 6 7 8 46 3 4 1 55 
81 61 
72 36 39 42 44 41 38 40 35 37 43 68 
92 62 33 31 29 27 28 30 26 34 50 32 89 48 24 
65 83 59 75 97 58 77 25 
